p cnf 899 2434
-1 10 0 
1 119 0 
-96 -67 0 
-97 -69 0 
-98 -71 0 
-99 -73 0 
-100 -75 0 
-101 -102 0 
-101 102 110 0 
-102 103 0 
-102 74 0 
-103 104 0 
-103 72 0 
-104 105 0 
-104 70 0 
-105 106 0 
-105 68 0 
-10 -11 12 0 
-10 11 35 0 
-106 107 0 
-106 66 0 
-107 108 0 
-107 64 0 
-108 109 0 
-108 62 0 
-109 61 0 
-110 -111 0 
-110 111 86 0 
-111 112 0 
-111 74 0 
-112 113 0 
-112 72 0 
-113 114 0 
-113 70 0 
-114 115 0 
-114 68 0 
-115 116 0 
-115 66 0 
-11 4 0 
-116 117 0 
-116 64 0 
-117 118 0 
-117 60 0 
-118 63 0 
-119 120 0 
-119 140 0 
-120 121 0 
-120 138 0 
-121 122 0 
-121 136 0 
-122 123 0 
-122 134 0 
-123 124 0 
-123 132 0 
-124 125 0 
-124 130 0 
-125 126 0 
-125 128 0 
-126 -127 20 0 
-126 -20 127 0 
-128 -129 22 0 
-128 -22 129 0 
-130 -131 24 0 
-130 -24 131 0 
-132 -133 26 0 
-132 -26 133 0 
-134 -135 28 0 
-134 -28 135 0 
-12 13 0 
-12 33 0 
-136 -137 30 0 
-136 -30 137 0 
-138 -139 32 0 
-138 -32 139 0 
-140 -141 34 0 
-140 -34 141 0 
-142 -143 12 0 
-142 143 158 0 
-143 -40 144 0 
-143 40 148 0 
-144 -48 0 
-144 48 145 0 
-145 -50 146 0 
-145 50 148 0 
-13 14 0 
-13 31 0 
-146 -53 147 0 
-146 53 156 0 
-147 77 148 0 
-148 100 0 
-148 149 0 
-149 99 0 
-149 150 0 
-150 98 0 
-150 151 0 
-151 97 0 
-151 152 0 
-152 96 0 
-152 153 0 
-153 154 0 
-153 95 0 
-154 155 0 
-154 94 0 
-155 61 0 
-14 15 0 
-14 29 0 
-156 -102 0 
-156 102 157 0 
-157 -111 0 
-157 111 148 0 
-158 -159 174 0 
-158 159 119 0 
-159 -40 160 0 
-159 40 164 0 
-160 -48 0 
-160 48 161 0 
-161 -50 162 0 
-161 50 164 0 
-162 -53 163 0 
-162 53 172 0 
-163 -77 0 
-163 77 164 0 
-164 100 0 
-164 165 0 
-165 99 0 
-165 166 0 
-15 16 0 
-15 27 0 
-166 98 0 
-166 167 0 
-167 97 0 
-167 168 0 
-168 96 0 
-168 169 0 
-169 170 0 
-169 95 0 
-170 171 0 
-170 93 0 
-171 63 0 
-172 102 173 0 
-173 111 164 0 
-174 -175 182 0 
-174 175 561 0 
-175 -40 176 0 
-175 40 177 0 
-16 17 0 
-16 25 0 
-176 -48 177 0 
-176 48 179 0 
-177 178 0 
-179 -50 180 0 
-179 50 177 0 
-180 181 0 
-182 -183 376 0 
-182 183 438 0 
-183 -40 184 0 
-183 40 185 0 
-184 -48 185 0 
-184 48 208 0 
-185 186 0 
-185 206 0 
-17 18 0 
-17 23 0 
-186 187 0 
-186 204 0 
-187 188 0 
-187 202 0 
-188 189 0 
-188 200 0 
-189 190 0 
-189 198 0 
-190 191 0 
-190 196 0 
-191 192 0 
-191 194 0 
-192 -193 0 
-194 -195 0 
-1 2 6 0 
-18 19 0 
-18 21 0 
-196 -197 0 
-198 -199 0 
-200 -201 0 
-202 -203 0 
-204 -205 0 
-19 -20 0 
-206 -207 0 
-208 -50 209 0 
-208 50 185 0 
-209 -53 185 0 
-209 53 210 0 
-210 -102 185 0 
-210 102 211 0 
-211 -111 212 0 
-211 111 185 0 
-212 -213 214 0 
-212 213 292 0 
-213 178 0 
-214 215 0 
-214 282 0 
-215 216 0 
-215 272 0 
-216 217 0 
-216 262 0 
-217 218 0 
-217 252 0 
-218 219 0 
-218 242 0 
-219 220 0 
-219 232 0 
-220 221 0 
-220 226 0 
-221 -222 0 
-222 223 0 
-223 -224 -225 0 
-223 224 225 0 
-226 -227 0 
-227 -228 -231 0 
-227 228 231 0 
-228 -229 -230 0 
-228 229 230 0 
-231 224 0 
-231 225 0 
-232 -233 0 
-233 -234 -237 0 
-233 234 237 0 
-234 -235 -236 0 
-234 235 236 0 
-21 -22 0 
-237 238 241 0 
-238 239 240 0 
-239 229 0 
-239 230 0 
-240 230 0 
-240 231 0 
-241 229 0 
-241 231 0 
-242 -243 0 
-243 -244 -247 0 
-243 244 247 0 
-244 -245 -246 0 
-244 245 246 0 
-247 248 251 0 
-248 249 250 0 
-249 235 0 
-249 236 0 
-250 236 0 
-250 237 0 
-251 235 0 
-251 237 0 
-252 -253 0 
-253 -254 -257 0 
-253 254 257 0 
-254 -255 -256 0 
-254 255 256 0 
-23 -24 0 
-257 258 261 0 
-258 259 260 0 
-259 245 0 
-259 246 0 
-260 246 0 
-260 247 0 
-261 245 0 
-261 247 0 
-262 -263 0 
-263 -264 -267 0 
-263 264 267 0 
-264 -265 -266 0 
-264 265 266 0 
-267 268 271 0 
-268 269 270 0 
-269 255 0 
-269 256 0 
-270 256 0 
-270 257 0 
-271 255 0 
-271 257 0 
-272 -273 0 
-273 -274 -277 0 
-273 274 277 0 
-274 -275 -276 0 
-274 275 276 0 
-25 -26 0 
-277 278 281 0 
-278 279 280 0 
-279 265 0 
-279 266 0 
-280 266 0 
-280 267 0 
-281 265 0 
-281 267 0 
-282 -283 0 
-283 -284 -287 0 
-283 284 287 0 
-284 -285 -286 0 
-284 285 286 0 
-287 288 291 0 
-288 289 290 0 
-289 275 0 
-289 276 0 
-290 276 0 
-290 277 0 
-291 275 0 
-291 277 0 
-292 -293 295 0 
-292 293 185 0 
-293 294 0 
-295 -296 185 0 
-295 296 298 0 
-2 -3 0 
-27 -28 0 
-296 297 0 
-298 299 0 
-298 366 0 
-299 300 0 
-299 356 0 
-300 301 0 
-300 346 0 
-301 302 0 
-301 336 0 
-302 303 0 
-302 326 0 
-303 304 0 
-303 316 0 
-304 305 0 
-304 310 0 
-305 -306 0 
-306 307 0 
-307 -308 -309 0 
-307 308 309 0 
-310 -311 0 
-311 -312 -315 0 
-311 312 315 0 
-312 -313 -314 0 
-312 313 314 0 
-315 308 0 
-315 309 0 
-29 -30 0 
-316 -317 0 
-317 -318 -321 0 
-317 318 321 0 
-318 -319 -320 0 
-318 319 320 0 
-321 322 325 0 
-322 323 324 0 
-323 313 0 
-323 314 0 
-324 314 0 
-324 315 0 
-325 313 0 
-325 315 0 
-326 -327 0 
-327 -328 -331 0 
-327 328 331 0 
-328 -329 -330 0 
-328 329 330 0 
-331 332 335 0 
-332 333 334 0 
-333 319 0 
-333 320 0 
-334 320 0 
-334 321 0 
-335 319 0 
-335 321 0 
-31 -32 0 
-336 -337 0 
-337 -338 -341 0 
-337 338 341 0 
-338 -339 -340 0 
-338 339 340 0 
-341 342 345 0 
-342 343 344 0 
-343 329 0 
-343 330 0 
-344 330 0 
-344 331 0 
-345 329 0 
-345 331 0 
-346 -347 0 
-347 -348 -351 0 
-347 348 351 0 
-348 -349 -350 0 
-348 349 350 0 
-351 352 355 0 
-352 353 354 0 
-353 339 0 
-353 340 0 
-354 340 0 
-354 341 0 
-355 339 0 
-355 341 0 
-33 -34 0 
-356 -357 0 
-357 -358 -361 0 
-357 358 361 0 
-358 -359 -360 0 
-358 359 360 0 
-361 362 365 0 
-362 363 364 0 
-363 349 0 
-363 350 0 
-364 350 0 
-364 351 0 
-365 349 0 
-365 351 0 
-366 -367 0 
-367 -368 -371 0 
-367 368 371 0 
-368 -369 -370 0 
-368 369 370 0 
-371 372 375 0 
-372 373 374 0 
-373 359 0 
-373 360 0 
-374 360 0 
-374 361 0 
-375 359 0 
-375 361 0 
-35 -36 38 0 
-35 36 119 0 
-376 -40 377 0 
-376 40 378 0 
-377 -48 378 0 
-377 48 401 0 
-378 379 0 
-378 399 0 
-379 380 0 
-379 397 0 
-380 381 0 
-380 395 0 
-381 382 0 
-381 393 0 
-382 383 0 
-382 391 0 
-383 384 0 
-383 389 0 
-384 385 0 
-384 387 0 
-385 -20 386 0 
-385 -386 20 0 
-36 37 0 
-36 6 0 
-387 -22 388 0 
-387 -388 22 0 
-389 -24 390 0 
-389 -390 24 0 
-391 -26 392 0 
-391 -392 26 0 
-393 -28 394 0 
-393 -394 28 0 
-395 -30 396 0 
-395 -396 30 0 
-3 -4 5 0 
-3 -5 4 0 
-37 8 0 
-397 -32 398 0 
-397 -398 32 0 
-399 -34 400 0 
-399 -400 34 0 
-401 -50 402 0 
-401 50 378 0 
-402 -53 378 0 
-402 53 403 0 
-403 -102 378 0 
-403 102 404 0 
-404 -111 405 0 
-404 111 378 0 
-405 -213 406 0 
-405 213 421 0 
-38 -39 119 0 
-38 39 142 0 
-406 407 0 
-406 420 0 
-407 408 0 
-407 419 0 
-408 409 0 
-408 418 0 
-409 410 0 
-409 417 0 
-410 411 0 
-410 416 0 
-411 412 0 
-411 415 0 
-412 413 0 
-412 414 0 
-413 -20 222 0 
-413 -222 20 0 
-414 -227 22 0 
-414 -22 227 0 
-415 -233 24 0 
-415 -24 233 0 
-39 -40 47 0 
-39 40 86 0 
-416 -243 26 0 
-416 -26 243 0 
-417 -253 28 0 
-417 -28 253 0 
-418 -263 30 0 
-418 -30 263 0 
-419 -273 32 0 
-419 -32 273 0 
-420 -283 34 0 
-420 -34 283 0 
-421 -293 422 0 
-421 293 378 0 
-422 -296 378 0 
-422 296 423 0 
-423 424 0 
-423 437 0 
-424 425 0 
-424 436 0 
-425 426 0 
-425 435 0 
-40 41 44 0 
-426 427 0 
-426 434 0 
-427 428 0 
-427 433 0 
-428 429 0 
-428 432 0 
-429 430 0 
-429 431 0 
-430 -20 306 0 
-430 -306 20 0 
-431 -22 311 0 
-431 -311 22 0 
-432 -24 317 0 
-432 -317 24 0 
-433 -26 327 0 
-433 -327 26 0 
-434 -28 337 0 
-434 -337 28 0 
-435 -30 347 0 
-435 -347 30 0 
-41 -42 0 
-436 -32 357 0 
-436 -357 32 0 
-437 -34 367 0 
-437 -367 34 0 
-438 -40 439 0 
-438 40 440 0 
-439 -48 440 0 
-439 48 478 0 
-440 441 0 
-440 474 0 
-441 442 0 
-441 470 0 
-442 443 0 
-442 466 0 
-443 444 0 
-443 462 0 
-444 445 0 
-444 458 0 
-445 446 0 
-445 454 0 
-42 -43 5 0 
-42 -5 43 0 
-446 447 0 
-446 450 0 
-447 -20 448 0 
-447 -448 20 0 
-448 449 0 
-449 -386 0 
-450 -22 451 0 
-450 -451 22 0 
-451 -452 -453 0 
-451 452 453 0 
-452 -388 0 
-453 386 0 
-454 -24 455 0 
-454 -455 24 0 
-455 -456 -457 0 
-455 456 457 0 
-456 -390 0 
-457 388 453 0 
-458 -26 459 0 
-458 -459 26 0 
-459 -460 -461 0 
-459 460 461 0 
-460 -392 0 
-461 390 457 0 
-462 -28 463 0 
-462 -463 28 0 
-463 -464 -465 0 
-463 464 465 0 
-464 -394 0 
-465 392 461 0 
-44 -45 0 
-466 -30 467 0 
-466 -467 30 0 
-467 -468 -469 0 
-467 468 469 0 
-468 -396 0 
-469 394 465 0 
-470 -32 471 0 
-470 -471 32 0 
-471 -472 -473 0 
-471 472 473 0 
-472 -398 0 
-473 396 469 0 
-474 -34 475 0 
-474 -475 34 0 
-475 -476 -477 0 
-475 476 477 0 
-45 -9 46 0 
-45 -46 9 0 
-476 -400 0 
-477 398 473 0 
-478 -50 479 0 
-478 50 440 0 
-479 -53 440 0 
-479 53 480 0 
-480 -102 440 0 
-480 102 481 0 
-481 -111 482 0 
-481 111 440 0 
-482 -213 483 0 
-482 213 521 0 
-483 484 0 
-483 517 0 
-484 485 0 
-484 513 0 
-485 486 0 
-485 509 0 
-486 487 0 
-486 505 0 
-487 488 0 
-487 501 0 
-488 489 0 
-488 497 0 
-489 490 0 
-489 493 0 
-490 -20 491 0 
-490 -491 20 0 
-491 492 0 
-492 -222 0 
-493 -22 494 0 
-493 -494 22 0 
-494 -495 -496 0 
-494 495 496 0 
-495 -227 0 
-47 48 49 0 
-496 222 0 
-497 -24 498 0 
-497 -498 24 0 
-498 -499 -500 0 
-498 499 500 0 
-499 -233 0 
-500 227 496 0 
-501 -26 502 0 
-501 -502 26 0 
-502 -503 -504 0 
-502 503 504 0 
-503 -243 0 
-504 233 500 0 
-505 -28 506 0 
-505 -506 28 0 
-48 5 0 
-506 -507 -508 0 
-506 507 508 0 
-507 -253 0 
-508 243 504 0 
-509 -30 510 0 
-509 -510 30 0 
-510 -511 -512 0 
-510 511 512 0 
-511 -263 0 
-512 253 508 0 
-513 -32 514 0 
-513 -514 32 0 
-514 -515 -516 0 
-514 515 516 0 
-515 -273 0 
-49 -50 52 0 
-49 50 86 0 
-516 263 512 0 
-517 -34 518 0 
-517 -518 34 0 
-518 -519 -520 0 
-518 519 520 0 
-519 -283 0 
-520 273 516 0 
-521 -293 522 0 
-521 293 440 0 
-522 -296 440 0 
-522 296 523 0 
-523 524 0 
-523 557 0 
-524 525 0 
-524 553 0 
-525 526 0 
-525 549 0 
-50 44 0 
-50 51 0 
-526 527 0 
-526 545 0 
-527 528 0 
-527 541 0 
-528 529 0 
-528 537 0 
-529 530 0 
-529 533 0 
-530 -20 531 0 
-530 -531 20 0 
-531 532 0 
-532 -306 0 
-533 -22 534 0 
-533 -534 22 0 
-534 -535 -536 0 
-534 535 536 0 
-535 -311 0 
-51 9 0 
-536 306 0 
-537 -24 538 0 
-537 -538 24 0 
-538 -539 -540 0 
-538 539 540 0 
-539 -317 0 
-540 311 536 0 
-541 -26 542 0 
-541 -542 26 0 
-542 -543 -544 0 
-542 543 544 0 
-543 -327 0 
-544 317 540 0 
-545 -28 546 0 
-545 -546 28 0 
-52 -53 76 0 
-52 53 101 0 
-546 -547 -548 0 
-546 547 548 0 
-547 -337 0 
-548 327 544 0 
-549 -30 550 0 
-549 -550 30 0 
-550 -551 -552 0 
-550 551 552 0 
-551 -347 0 
-552 337 548 0 
-553 -32 554 0 
-553 -554 32 0 
-554 -555 -556 0 
-554 555 556 0 
-555 -357 0 
-53 54 0 
-53 74 0 
-556 347 552 0 
-557 -34 558 0 
-557 -558 34 0 
-558 -559 -560 0 
-558 559 560 0 
-559 -367 0 
-560 357 556 0 
-561 -562 568 0 
-561 562 853 0 
-562 -40 563 0 
-562 40 564 0 
-563 -48 564 0 
-563 48 565 0 
-564 294 0 
-565 -50 566 0 
-565 50 564 0 
-54 55 0 
-54 72 0 
-566 567 0 
-568 -569 575 0 
-568 569 182 0 
-569 -40 570 0 
-569 40 571 0 
-570 -48 571 0 
-570 48 572 0 
-571 297 0 
-572 -50 573 0 
-572 50 571 0 
-573 574 0 
-575 -40 576 0 
-575 40 579 0 
-55 56 0 
-55 70 0 
-576 -48 12 0 
-576 48 577 0 
-577 -50 578 0 
-577 50 579 0 
-578 -53 579 0 
-578 53 594 0 
-579 580 0 
-579 593 0 
-580 581 0 
-580 592 0 
-581 582 0 
-581 591 0 
-582 583 0 
-582 590 0 
-583 584 0 
-583 589 0 
-584 585 0 
-584 588 0 
-585 586 0 
-585 587 0 
-56 57 0 
-56 68 0 
-586 -20 309 0 
-586 -309 20 0 
-587 -22 314 0 
-587 -314 22 0 
-588 -24 320 0 
-588 -320 24 0 
-589 -26 330 0 
-589 -330 26 0 
-590 -28 340 0 
-590 -340 28 0 
-591 -30 350 0 
-591 -350 30 0 
-592 -32 360 0 
-592 -360 32 0 
-593 -34 370 0 
-593 -370 34 0 
-594 -102 12 0 
-594 102 595 0 
-595 -111 596 0 
-595 111 579 0 
-57 58 0 
-57 66 0 
-596 -597 604 0 
-596 597 633 0 
-597 598 601 0 
-598 -599 0 
-599 -43 600 0 
-599 -600 43 0 
-601 -602 0 
-602 -46 603 0 
-602 -603 46 0 
-604 -605 12 0 
-604 605 606 0 
-605 43 0 
-58 59 0 
-58 64 0 
-606 -607 609 0 
-606 607 633 0 
-607 601 0 
-607 608 0 
-608 46 0 
-609 -610 633 0 
-609 610 656 0 
-610 611 0 
-610 631 0 
-611 612 0 
-611 629 0 
-612 613 0 
-612 627 0 
-613 614 0 
-613 625 0 
-614 615 0 
-614 623 0 
-615 616 0 
-615 621 0 
-59 60 0 
-59 62 0 
-616 617 0 
-616 619 0 
-617 -618 0 
-619 -620 0 
-621 -622 0 
-623 -624 0 
-625 -626 0 
-60 -61 0 
-627 -628 0 
-629 -630 0 
-631 -632 0 
-633 634 0 
-633 654 0 
-634 635 0 
-634 652 0 
-635 636 0 
-635 650 0 
-636 637 0 
-636 648 0 
-637 638 0 
-637 646 0 
-638 639 0 
-638 644 0 
-639 640 0 
-639 642 0 
-640 -20 641 0 
-640 -641 20 0 
-642 -22 643 0 
-642 -643 22 0 
-644 -24 645 0 
-644 -645 24 0 
-62 -63 0 
-646 -26 647 0 
-646 -647 26 0 
-648 -28 649 0 
-648 -649 28 0 
-650 -30 651 0 
-650 -651 30 0 
-652 -32 653 0 
-652 -653 32 0 
-654 -34 655 0 
-654 -655 34 0 
-656 -657 12 0 
-656 657 665 0 
-657 631 0 
-657 658 0 
-658 629 0 
-658 659 0 
-659 627 0 
-659 660 0 
-660 625 0 
-660 661 0 
-661 623 0 
-661 662 0 
-662 621 0 
-662 663 0 
-663 619 0 
-663 664 0 
-664 618 0 
-665 -666 674 0 
-665 666 633 0 
-64 -65 0 
-666 631 0 
-666 667 0 
-667 629 0 
-667 668 0 
-668 627 0 
-668 669 0 
-669 625 0 
-669 670 0 
-670 623 0 
-670 671 0 
-671 621 0 
-671 672 0 
-672 617 0 
-672 673 0 
-673 620 0 
-674 -675 682 0 
-674 675 711 0 
-675 676 679 0 
-676 -677 0 
-677 -600 678 0 
-677 -678 600 0 
-679 -680 0 
-680 -603 681 0 
-680 -681 603 0 
-682 -683 12 0 
-682 683 684 0 
-683 600 0 
-684 -685 687 0 
-684 685 711 0 
-685 679 0 
-685 686 0 
-66 -67 0 
-686 603 0 
-687 -688 711 0 
-687 688 734 0 
-688 689 0 
-688 709 0 
-689 690 0 
-689 707 0 
-690 691 0 
-690 705 0 
-691 692 0 
-691 703 0 
-692 693 0 
-692 701 0 
-693 694 0 
-693 699 0 
-694 695 0 
-694 697 0 
-695 -696 0 
-6 -7 0 
-697 -698 0 
-699 -700 0 
-701 -702 0 
-703 -704 0 
-705 -706 0 
-68 -69 0 
-707 -708 0 
-709 -710 0 
-711 712 0 
-711 732 0 
-712 713 0 
-712 730 0 
-713 714 0 
-713 728 0 
-714 715 0 
-714 726 0 
-715 716 0 
-715 724 0 
-716 717 0 
-716 722 0 
-717 718 0 
-717 720 0 
-718 -20 719 0 
-718 -719 20 0 
-720 -22 721 0 
-720 -721 22 0 
-722 -24 723 0 
-722 -723 24 0 
-724 -26 725 0 
-724 -725 26 0 
-70 -71 0 
-726 -28 727 0 
-726 -727 28 0 
-728 -30 729 0 
-728 -729 30 0 
-730 -32 731 0 
-730 -731 32 0 
-732 -34 733 0 
-732 -733 34 0 
-734 -735 12 0 
-734 735 743 0 
-735 709 0 
-735 736 0 
-736 707 0 
-736 737 0 
-737 705 0 
-737 738 0 
-738 703 0 
-738 739 0 
-739 701 0 
-739 740 0 
-740 699 0 
-740 741 0 
-741 697 0 
-741 742 0 
-742 696 0 
-743 -744 752 0 
-743 744 711 0 
-744 709 0 
-744 745 0 
-745 707 0 
-745 746 0 
-72 -73 0 
-746 705 0 
-746 747 0 
-747 703 0 
-747 748 0 
-748 701 0 
-748 749 0 
-749 699 0 
-749 750 0 
-750 695 0 
-750 751 0 
-751 698 0 
-752 -753 760 0 
-752 753 789 0 
-753 754 757 0 
-754 -755 0 
-755 -678 756 0 
-755 -756 678 0 
-757 -758 0 
-758 -681 759 0 
-758 -759 681 0 
-760 -761 12 0 
-760 761 762 0 
-761 678 0 
-762 -763 765 0 
-762 763 789 0 
-763 757 0 
-763 764 0 
-764 681 0 
-765 -766 789 0 
-765 766 812 0 
-74 -75 0 
-766 767 0 
-766 787 0 
-767 768 0 
-767 785 0 
-768 769 0 
-768 783 0 
-769 770 0 
-769 781 0 
-770 771 0 
-770 779 0 
-771 772 0 
-771 777 0 
-772 773 0 
-772 775 0 
-773 -774 0 
-775 -776 0 
-777 -778 0 
-779 -780 0 
-781 -782 0 
-783 -784 0 
-785 -786 0 
-76 -77 0 
-76 77 86 0 
-787 -788 0 
-789 790 0 
-789 810 0 
-790 791 0 
-790 808 0 
-791 792 0 
-791 806 0 
-792 793 0 
-792 804 0 
-793 794 0 
-793 802 0 
-794 795 0 
-794 800 0 
-795 796 0 
-795 798 0 
-7 -9 8 0 
-7 -8 9 0 
-77 78 0 
-796 -20 797 0 
-796 -797 20 0 
-798 -22 799 0 
-798 -799 22 0 
-800 -24 801 0 
-800 -801 24 0 
-802 -26 803 0 
-802 -803 26 0 
-804 -28 805 0 
-804 -805 28 0 
-78 79 0 
-806 -30 807 0 
-806 -807 30 0 
-808 -32 809 0 
-808 -809 32 0 
-810 -34 811 0 
-810 -811 34 0 
-812 -813 12 0 
-812 813 821 0 
-813 787 0 
-813 814 0 
-814 785 0 
-814 815 0 
-815 783 0 
-815 816 0 
-79 80 0 
-816 781 0 
-816 817 0 
-817 779 0 
-817 818 0 
-818 777 0 
-818 819 0 
-819 775 0 
-819 820 0 
-820 774 0 
-821 -822 830 0 
-821 822 789 0 
-822 787 0 
-822 823 0 
-823 785 0 
-823 824 0 
-824 783 0 
-824 825 0 
-825 781 0 
-825 826 0 
-80 81 0 
-826 779 0 
-826 827 0 
-827 777 0 
-827 828 0 
-828 773 0 
-828 829 0 
-829 776 0 
-830 831 0 
-830 851 0 
-831 832 0 
-831 849 0 
-832 833 0 
-832 847 0 
-833 834 0 
-833 845 0 
-834 835 0 
-834 843 0 
-835 836 0 
-835 841 0 
-81 82 0 
-836 837 0 
-836 839 0 
-837 -20 838 0 
-837 -838 20 0 
-839 -22 840 0 
-839 -840 22 0 
-841 -24 842 0 
-841 -842 24 0 
-843 -26 844 0 
-843 -844 26 0 
-845 -28 846 0 
-845 -846 28 0 
-82 83 0 
-847 -30 848 0 
-847 -848 30 0 
-849 -32 850 0 
-849 -850 32 0 
-851 -34 852 0 
-851 -852 34 0 
-853 -40 854 0 
-853 40 857 0 
-854 -48 12 0 
-854 48 855 0 
-855 -50 856 0 
-855 50 857 0 
-83 84 0 
-856 -53 857 0 
-856 53 880 0 
-857 858 0 
-857 878 0 
-858 859 0 
-858 876 0 
-859 860 0 
-859 874 0 
-860 861 0 
-860 872 0 
-861 862 0 
-861 870 0 
-862 863 0 
-862 868 0 
-863 864 0 
-863 866 0 
-864 -20 865 0 
-864 -865 20 0 
-84 -85 0 
-866 -22 867 0 
-866 -867 22 0 
-868 -24 869 0 
-868 -869 24 0 
-870 -26 871 0 
-870 -871 26 0 
-872 -28 873 0 
-872 -873 28 0 
-874 -30 875 0 
-874 -875 30 0 
-876 -32 877 0 
-876 -877 32 0 
-878 -34 879 0 
-878 -879 34 0 
-880 -102 12 0 
-880 102 881 0 
-881 -111 882 0 
-881 111 857 0 
-882 -213 883 0 
-882 213 899 0 
-883 -293 884 0 
-883 293 857 0 
-884 885 0 
-884 898 0 
-885 886 0 
-885 897 0 
-886 887 0 
-886 896 0 
-887 888 0 
-887 895 0 
-888 889 0 
-888 894 0 
-889 890 0 
-889 893 0 
-890 891 0 
-890 892 0 
-891 -20 308 0 
-891 -308 20 0 
-892 -22 313 0 
-892 -313 22 0 
-893 -24 319 0 
-893 -319 24 0 
-894 -26 329 0 
-894 -329 26 0 
-895 -28 339 0 
-895 -339 28 0 
-86 100 0 
-86 87 0 
-896 -30 349 0 
-896 -349 30 0 
-897 -32 359 0 
-897 -359 32 0 
-898 -34 369 0 
-898 -369 34 0 
-899 -293 883 0 
-899 293 857 0 
-87 99 0 
-87 88 0 
-88 98 0 
-88 89 0 
-89 97 0 
-89 90 0 
-90 96 0 
-90 91 0 
-91 92 0 
-91 95 0 
-92 93 0 
-92 94 0 
-93 -61 0 
-94 -63 0 
-95 -65 0 
96 67 0 
97 69 0 
98 71 0 
99 73 0 
100 75 0 
101 102 -110 0 
102 -103 -74 0 
103 -104 -72 0 
104 -105 -70 0 
105 -106 -68 0 
10 -11 -12 0 
10 -12 -35 0 
10 11 -35 0 
106 -107 -66 0 
107 -108 -64 0 
108 -109 -62 0 
109 -61 0 
110 111 -86 0 
111 -112 -74 0 
112 -113 -72 0 
113 -114 -70 0 
114 -115 -68 0 
115 -116 -66 0 
11 -4 0 
116 -117 -64 0 
117 -60 -118 0 
118 -63 0 
119 -120 -140 0 
120 -121 -138 0 
121 -122 -136 0 
122 -123 -134 0 
123 -124 -132 0 
124 -125 -130 0 
125 -126 -128 0 
126 -20 -127 0 
126 20 127 0 
128 -22 -129 0 
128 22 129 0 
130 -24 -131 0 
130 24 131 0 
132 -26 -133 0 
132 26 133 0 
134 -28 -135 0 
134 28 135 0 
12 -13 -33 0 
136 -30 -137 0 
136 30 137 0 
138 -32 -139 0 
138 32 139 0 
140 -34 -141 0 
140 34 141 0 
142 -12 -158 0 
142 -143 -12 0 
142 143 -158 0 
143 -144 -148 0 
143 -40 -144 0 
143 40 -148 0 
144 48 -145 0 
145 -146 -148 0 
145 -50 -146 0 
145 50 -148 0 
13 -14 -31 0 
146 -147 -156 0 
146 -53 -147 0 
146 53 -156 0 
147 -148 0 
147 -77 0 
147 77 -148 0 
148 -149 -100 0 
149 -150 -99 0 
150 -151 -98 0 
151 -152 -97 0 
152 -153 -96 0 
153 -154 -95 0 
154 -155 -94 0 
155 -61 0 
14 -15 -29 0 
156 102 -157 0 
157 111 -148 0 
158 -159 -174 0 
158 -174 -119 0 
158 159 -119 0 
159 -160 -164 0 
159 -40 -160 0 
159 40 -164 0 
160 48 -161 0 
161 -162 -164 0 
161 -50 -162 0 
161 50 -164 0 
162 -163 -172 0 
162 -53 -163 0 
162 53 -172 0 
163 77 -164 0 
164 -165 -100 0 
165 -166 -99 0 
15 -16 -27 0 
166 -167 -98 0 
167 -168 -97 0 
168 -169 -96 0 
169 -170 -95 0 
170 -93 -171 0 
171 -63 0 
172 -102 0 
172 -173 0 
172 102 -173 0 
173 -111 0 
173 -164 0 
173 111 -164 0 
174 -175 -182 0 
174 -182 -561 0 
174 175 -561 0 
175 -176 -177 0 
175 -40 -176 0 
175 40 -177 0 
16 -17 -25 0 
176 -177 -179 0 
176 -48 -177 0 
176 48 -179 0 
177 -178 0 
179 -180 -177 0 
179 -50 -180 0 
179 50 -177 0 
180 -181 0 
182 -183 -376 0 
182 -376 -438 0 
182 183 -438 0 
183 -184 -185 0 
183 -40 -184 0 
183 40 -185 0 
184 -185 -208 0 
184 -48 -185 0 
184 48 -208 0 
185 -186 -206 0 
17 -18 -23 0 
186 -187 -204 0 
187 -188 -202 0 
188 -189 -200 0 
189 -190 -198 0 
190 -191 -196 0 
191 -192 -194 0 
192 193 0 
194 195 0 
1 -2 0 
1 -6 0 
18 -19 -21 0 
196 197 0 
198 199 0 
200 201 0 
202 203 0 
204 205 0 
19 20 0 
206 207 0 
208 -209 -185 0 
208 -50 -209 0 
208 50 -185 0 
209 -185 -210 0 
209 -53 -185 0 
209 53 -210 0 
210 -102 -185 0 
210 -185 -211 0 
210 102 -211 0 
211 -111 -212 0 
211 -212 -185 0 
211 111 -185 0 
212 -213 -214 0 
212 -214 -292 0 
212 213 -292 0 
213 -178 0 
214 -215 -282 0 
215 -216 -272 0 
216 -217 -262 0 
217 -218 -252 0 
218 -219 -242 0 
219 -220 -232 0 
220 -221 -226 0 
221 222 0 
222 -223 0 
223 -224 225 0 
223 -225 224 0 
226 227 0 
227 -228 231 0 
227 -231 228 0 
228 -229 230 0 
228 -230 229 0 
231 -224 -225 0 
232 233 0 
233 -234 237 0 
233 -237 234 0 
234 -235 236 0 
234 -236 235 0 
21 22 0 
237 -238 0 
237 -241 0 
238 -239 0 
238 -240 0 
239 -229 -230 0 
240 -230 -231 0 
241 -229 -231 0 
242 243 0 
243 -244 247 0 
243 -247 244 0 
244 -245 246 0 
244 -246 245 0 
247 -248 0 
247 -251 0 
248 -249 0 
248 -250 0 
249 -235 -236 0 
250 -236 -237 0 
251 -235 -237 0 
252 253 0 
253 -254 257 0 
253 -257 254 0 
254 -255 256 0 
254 -256 255 0 
23 24 0 
257 -258 0 
257 -261 0 
258 -259 0 
258 -260 0 
259 -245 -246 0 
260 -246 -247 0 
261 -245 -247 0 
262 263 0 
263 -264 267 0 
263 -267 264 0 
264 -265 266 0 
264 -266 265 0 
267 -268 0 
267 -271 0 
268 -269 0 
268 -270 0 
269 -255 -256 0 
270 -256 -257 0 
271 -255 -257 0 
272 273 0 
273 -274 277 0 
273 -277 274 0 
274 -275 276 0 
274 -276 275 0 
25 26 0 
277 -278 0 
277 -281 0 
278 -279 0 
278 -280 0 
279 -265 -266 0 
280 -266 -267 0 
281 -265 -267 0 
282 283 0 
283 -284 287 0 
283 -287 284 0 
284 -285 286 0 
284 -286 285 0 
287 -288 0 
287 -291 0 
288 -289 0 
288 -290 0 
289 -275 -276 0 
290 -276 -277 0 
291 -275 -277 0 
292 -293 -295 0 
292 -295 -185 0 
292 293 -185 0 
293 -294 0 
295 -185 -298 0 
295 -296 -185 0 
295 296 -298 0 
2 3 0 
27 28 0 
296 -297 0 
298 -299 -366 0 
299 -300 -356 0 
300 -301 -346 0 
301 -302 -336 0 
302 -303 -326 0 
303 -304 -316 0 
304 -305 -310 0 
305 306 0 
306 -307 0 
307 -308 309 0 
307 -309 308 0 
310 311 0 
311 -312 315 0 
311 -315 312 0 
312 -313 314 0 
312 -314 313 0 
315 -308 -309 0 
29 30 0 
316 317 0 
317 -318 321 0 
317 -321 318 0 
318 -319 320 0 
318 -320 319 0 
321 -322 0 
321 -325 0 
322 -323 0 
322 -324 0 
323 -313 -314 0 
324 -314 -315 0 
325 -313 -315 0 
326 327 0 
327 -328 331 0 
327 -331 328 0 
328 -329 330 0 
328 -330 329 0 
331 -332 0 
331 -335 0 
332 -333 0 
332 -334 0 
333 -319 -320 0 
334 -320 -321 0 
335 -319 -321 0 
31 32 0 
336 337 0 
337 -338 341 0 
337 -341 338 0 
338 -339 340 0 
338 -340 339 0 
341 -342 0 
341 -345 0 
342 -343 0 
342 -344 0 
343 -329 -330 0 
344 -330 -331 0 
345 -329 -331 0 
346 347 0 
347 -348 351 0 
347 -351 348 0 
348 -349 350 0 
348 -350 349 0 
351 -352 0 
351 -355 0 
352 -353 0 
352 -354 0 
353 -339 -340 0 
354 -340 -341 0 
355 -339 -341 0 
33 34 0 
356 357 0 
357 -358 361 0 
357 -361 358 0 
358 -359 360 0 
358 -360 359 0 
361 -362 0 
361 -365 0 
362 -363 0 
362 -364 0 
363 -349 -350 0 
364 -350 -351 0 
365 -349 -351 0 
366 367 0 
367 -368 371 0 
367 -371 368 0 
368 -369 370 0 
368 -370 369 0 
371 -372 0 
371 -375 0 
372 -373 0 
372 -374 0 
373 -359 -360 0 
374 -360 -361 0 
375 -359 -361 0 
35 -36 -38 0 
35 -38 -119 0 
35 36 -119 0 
376 -377 -378 0 
376 -40 -377 0 
376 40 -378 0 
377 -378 -401 0 
377 -48 -378 0 
377 48 -401 0 
378 -379 -399 0 
379 -380 -397 0 
380 -381 -395 0 
381 -382 -393 0 
382 -383 -391 0 
383 -384 -389 0 
384 -385 -387 0 
385 -20 -386 0 
385 20 386 0 
36 -6 -37 0 
387 -22 -388 0 
387 22 388 0 
389 -24 -390 0 
389 24 390 0 
391 -26 -392 0 
391 26 392 0 
393 -28 -394 0 
393 28 394 0 
395 -30 -396 0 
395 30 396 0 
3 -4 -5 0 
3 4 5 0 
37 -8 0 
397 -32 -398 0 
397 32 398 0 
399 -34 -400 0 
399 34 400 0 
401 -402 -378 0 
401 -50 -402 0 
401 50 -378 0 
402 -378 -403 0 
402 -53 -378 0 
402 53 -403 0 
403 -102 -378 0 
403 -378 -404 0 
403 102 -404 0 
404 -111 -405 0 
404 -405 -378 0 
404 111 -378 0 
405 -213 -406 0 
405 -406 -421 0 
405 213 -421 0 
38 -119 -142 0 
38 -39 -119 0 
38 39 -142 0 
406 -407 -420 0 
407 -408 -419 0 
408 -409 -418 0 
409 -410 -417 0 
410 -411 -416 0 
411 -412 -415 0 
412 -413 -414 0 
413 -20 -222 0 
413 20 222 0 
414 -22 -227 0 
414 22 227 0 
415 -24 -233 0 
415 24 233 0 
39 -40 -47 0 
39 -47 -86 0 
39 40 -86 0 
416 -26 -243 0 
416 26 243 0 
417 -28 -253 0 
417 28 253 0 
418 -30 -263 0 
418 30 263 0 
419 -32 -273 0 
419 32 273 0 
420 -34 -283 0 
420 34 283 0 
421 -293 -422 0 
421 -422 -378 0 
421 293 -378 0 
422 -296 -378 0 
422 -378 -423 0 
422 296 -423 0 
423 -424 -437 0 
424 -425 -436 0 
425 -426 -435 0 
40 -41 0 
40 -44 0 
426 -427 -434 0 
427 -428 -433 0 
428 -429 -432 0 
429 -430 -431 0 
430 -20 -306 0 
430 20 306 0 
431 -22 -311 0 
431 22 311 0 
432 -24 -317 0 
432 24 317 0 
433 -26 -327 0 
433 26 327 0 
434 -28 -337 0 
434 28 337 0 
435 -30 -347 0 
435 30 347 0 
41 42 0 
436 -32 -357 0 
436 32 357 0 
437 -34 -367 0 
437 34 367 0 
438 -40 -439 0 
438 -439 -440 0 
438 40 -440 0 
439 -440 -478 0 
439 -48 -440 0 
439 48 -478 0 
440 -441 -474 0 
441 -442 -470 0 
442 -443 -466 0 
443 -444 -462 0 
444 -445 -458 0 
445 -446 -454 0 
42 -5 -43 0 
42 5 43 0 
446 -447 -450 0 
447 -20 -448 0 
447 20 448 0 
448 -449 0 
449 386 0 
450 -22 -451 0 
450 22 451 0 
451 -452 453 0 
451 -453 452 0 
452 388 0 
453 -386 0 
454 -24 -455 0 
454 24 455 0 
455 -456 457 0 
455 -457 456 0 
456 390 0 
457 -388 0 
457 -453 0 
458 -26 -459 0 
458 26 459 0 
459 -460 461 0 
459 -461 460 0 
460 392 0 
461 -390 0 
461 -457 0 
462 -28 -463 0 
462 28 463 0 
463 -464 465 0 
463 -465 464 0 
464 394 0 
465 -392 0 
465 -461 0 
44 45 0 
466 -30 -467 0 
466 30 467 0 
467 -468 469 0 
467 -469 468 0 
468 396 0 
469 -394 0 
469 -465 0 
470 -32 -471 0 
470 32 471 0 
471 -472 473 0 
471 -473 472 0 
472 398 0 
473 -396 0 
473 -469 0 
474 -34 -475 0 
474 34 475 0 
475 -476 477 0 
475 -477 476 0 
45 -9 -46 0 
45 9 46 0 
476 400 0 
477 -398 0 
477 -473 0 
478 -479 -440 0 
478 -50 -479 0 
478 50 -440 0 
479 -440 -480 0 
479 -53 -440 0 
479 53 -480 0 
480 -102 -440 0 
480 -440 -481 0 
480 102 -481 0 
481 -111 -482 0 
481 -482 -440 0 
481 111 -440 0 
482 -213 -483 0 
482 -483 -521 0 
482 213 -521 0 
483 -484 -517 0 
484 -485 -513 0 
485 -486 -509 0 
486 -487 -505 0 
487 -488 -501 0 
488 -489 -497 0 
489 -490 -493 0 
490 -20 -491 0 
490 20 491 0 
491 -492 0 
492 222 0 
493 -22 -494 0 
493 22 494 0 
494 -495 496 0 
494 -496 495 0 
495 227 0 
47 -49 0 
47 -48 0 
47 48 -49 0 
496 -222 0 
497 -24 -498 0 
497 24 498 0 
498 -499 500 0 
498 -500 499 0 
499 233 0 
500 -227 0 
500 -496 0 
501 -26 -502 0 
501 26 502 0 
502 -503 504 0 
502 -504 503 0 
503 243 0 
504 -233 0 
504 -500 0 
505 -28 -506 0 
505 28 506 0 
48 -5 0 
506 -507 508 0 
506 -508 507 0 
507 253 0 
508 -243 0 
508 -504 0 
509 -30 -510 0 
509 30 510 0 
510 -511 512 0 
510 -512 511 0 
511 263 0 
512 -253 0 
512 -508 0 
513 -32 -514 0 
513 32 514 0 
514 -515 516 0 
514 -516 515 0 
515 273 0 
49 -50 -52 0 
49 -52 -86 0 
49 50 -86 0 
516 -263 0 
516 -512 0 
517 -34 -518 0 
517 34 518 0 
518 -519 520 0 
518 -520 519 0 
519 283 0 
520 -273 0 
520 -516 0 
521 -293 -522 0 
521 -522 -440 0 
521 293 -440 0 
522 -296 -440 0 
522 -440 -523 0 
522 296 -523 0 
523 -524 -557 0 
524 -525 -553 0 
525 -526 -549 0 
50 -44 -51 0 
526 -527 -545 0 
527 -528 -541 0 
528 -529 -537 0 
529 -530 -533 0 
530 -20 -531 0 
530 20 531 0 
531 -532 0 
532 306 0 
533 -22 -534 0 
533 22 534 0 
534 -535 536 0 
534 -536 535 0 
535 311 0 
51 -9 0 
536 -306 0 
537 -24 -538 0 
537 24 538 0 
538 -539 540 0 
538 -540 539 0 
539 317 0 
540 -311 0 
540 -536 0 
541 -26 -542 0 
541 26 542 0 
542 -543 544 0 
542 -544 543 0 
543 327 0 
544 -317 0 
544 -540 0 
545 -28 -546 0 
545 28 546 0 
52 -53 -76 0 
52 -76 -101 0 
52 53 -101 0 
546 -547 548 0 
546 -548 547 0 
547 337 0 
548 -327 0 
548 -544 0 
549 -30 -550 0 
549 30 550 0 
550 -551 552 0 
550 -552 551 0 
551 347 0 
552 -337 0 
552 -548 0 
553 -32 -554 0 
553 32 554 0 
554 -555 556 0 
554 -556 555 0 
555 357 0 
53 -54 -74 0 
556 -347 0 
556 -552 0 
557 -34 -558 0 
557 34 558 0 
558 -559 560 0 
558 -560 559 0 
559 367 0 
560 -357 0 
560 -556 0 
561 -562 -568 0 
561 -568 -853 0 
561 562 -853 0 
562 -40 -563 0 
562 -563 -564 0 
562 40 -564 0 
563 -48 -564 0 
563 -564 -565 0 
563 48 -565 0 
564 -294 0 
565 -50 -566 0 
565 -566 -564 0 
565 50 -564 0 
54 -55 -72 0 
566 -567 0 
568 -569 -575 0 
568 -575 -182 0 
568 569 -182 0 
569 -40 -570 0 
569 -570 -571 0 
569 40 -571 0 
570 -48 -571 0 
570 -571 -572 0 
570 48 -572 0 
571 -297 0 
572 -50 -573 0 
572 -573 -571 0 
572 50 -571 0 
573 -574 0 
575 -40 -576 0 
575 -576 -579 0 
575 40 -579 0 
55 -56 -70 0 
576 -12 -577 0 
576 -48 -12 0 
576 48 -577 0 
577 -50 -578 0 
577 -578 -579 0 
577 50 -579 0 
578 -53 -579 0 
578 -579 -594 0 
578 53 -594 0 
579 -580 -593 0 
580 -581 -592 0 
581 -582 -591 0 
582 -583 -590 0 
583 -584 -589 0 
584 -585 -588 0 
585 -586 -587 0 
56 -57 -68 0 
586 -20 -309 0 
586 20 309 0 
587 -22 -314 0 
587 22 314 0 
588 -24 -320 0 
588 24 320 0 
589 -26 -330 0 
589 26 330 0 
590 -28 -340 0 
590 28 340 0 
591 -30 -350 0 
591 30 350 0 
592 -32 -360 0 
592 32 360 0 
593 -34 -370 0 
593 34 370 0 
594 -102 -12 0 
594 -12 -595 0 
594 102 -595 0 
595 -111 -596 0 
595 -596 -579 0 
595 111 -579 0 
57 -58 -66 0 
596 -597 -604 0 
596 -604 -633 0 
596 597 -633 0 
597 -598 0 
597 -601 0 
598 599 0 
599 -43 -600 0 
599 43 600 0 
601 602 0 
602 -46 -603 0 
602 46 603 0 
604 -12 -606 0 
604 -605 -12 0 
604 605 -606 0 
605 -43 0 
58 -59 -64 0 
606 -607 -609 0 
606 -609 -633 0 
606 607 -633 0 
607 -601 -608 0 
608 -46 0 
609 -610 -633 0 
609 -633 -656 0 
609 610 -656 0 
610 -611 -631 0 
611 -612 -629 0 
612 -613 -627 0 
613 -614 -625 0 
614 -615 -623 0 
615 -616 -621 0 
59 -60 -62 0 
616 -617 -619 0 
617 618 0 
619 620 0 
621 622 0 
623 624 0 
625 626 0 
60 61 0 
627 628 0 
629 630 0 
631 632 0 
633 -634 -654 0 
634 -635 -652 0 
635 -636 -650 0 
636 -637 -648 0 
637 -638 -646 0 
638 -639 -644 0 
639 -640 -642 0 
640 -20 -641 0 
640 20 641 0 
642 -22 -643 0 
642 22 643 0 
644 -24 -645 0 
644 24 645 0 
62 63 0 
646 -26 -647 0 
646 26 647 0 
648 -28 -649 0 
648 28 649 0 
650 -30 -651 0 
650 30 651 0 
652 -32 -653 0 
652 32 653 0 
654 -34 -655 0 
654 34 655 0 
656 -12 -665 0 
656 -657 -12 0 
656 657 -665 0 
657 -658 -631 0 
658 -659 -629 0 
659 -660 -627 0 
660 -661 -625 0 
661 -662 -623 0 
662 -663 -621 0 
663 -664 -619 0 
664 -618 0 
665 -666 -674 0 
665 -674 -633 0 
665 666 -633 0 
64 65 0 
666 -667 -631 0 
667 -668 -629 0 
668 -669 -627 0 
669 -670 -625 0 
670 -671 -623 0 
671 -672 -621 0 
672 -617 -673 0 
673 -620 0 
674 -675 -682 0 
674 -682 -711 0 
674 675 -711 0 
675 -676 0 
675 -679 0 
676 677 0 
677 -600 -678 0 
677 600 678 0 
679 680 0 
680 -603 -681 0 
680 603 681 0 
682 -12 -684 0 
682 -683 -12 0 
682 683 -684 0 
683 -600 0 
684 -685 -687 0 
684 -687 -711 0 
684 685 -711 0 
685 -679 -686 0 
66 67 0 
686 -603 0 
687 -688 -711 0 
687 -711 -734 0 
687 688 -734 0 
688 -689 -709 0 
689 -690 -707 0 
690 -691 -705 0 
691 -692 -703 0 
692 -693 -701 0 
693 -694 -699 0 
694 -695 -697 0 
695 696 0 
6 7 0 
697 698 0 
699 700 0 
701 702 0 
703 704 0 
705 706 0 
68 69 0 
707 708 0 
709 710 0 
711 -712 -732 0 
712 -713 -730 0 
713 -714 -728 0 
714 -715 -726 0 
715 -716 -724 0 
716 -717 -722 0 
717 -718 -720 0 
718 -20 -719 0 
718 20 719 0 
720 -22 -721 0 
720 22 721 0 
722 -24 -723 0 
722 24 723 0 
724 -26 -725 0 
724 26 725 0 
70 71 0 
726 -28 -727 0 
726 28 727 0 
728 -30 -729 0 
728 30 729 0 
730 -32 -731 0 
730 32 731 0 
732 -34 -733 0 
732 34 733 0 
734 -12 -743 0 
734 -735 -12 0 
734 735 -743 0 
735 -736 -709 0 
736 -737 -707 0 
737 -738 -705 0 
738 -739 -703 0 
739 -740 -701 0 
740 -741 -699 0 
741 -742 -697 0 
742 -696 0 
743 -744 -752 0 
743 -752 -711 0 
743 744 -711 0 
744 -745 -709 0 
745 -746 -707 0 
72 73 0 
746 -747 -705 0 
747 -748 -703 0 
748 -749 -701 0 
749 -750 -699 0 
750 -695 -751 0 
751 -698 0 
752 -753 -760 0 
752 -760 -789 0 
752 753 -789 0 
753 -754 0 
753 -757 0 
754 755 0 
755 -678 -756 0 
755 678 756 0 
757 758 0 
758 -681 -759 0 
758 681 759 0 
760 -12 -762 0 
760 -761 -12 0 
760 761 -762 0 
761 -678 0 
762 -763 -765 0 
762 -765 -789 0 
762 763 -789 0 
763 -757 -764 0 
764 -681 0 
765 -766 -789 0 
765 -789 -812 0 
765 766 -812 0 
74 75 0 
766 -767 -787 0 
767 -768 -785 0 
768 -769 -783 0 
769 -770 -781 0 
770 -771 -779 0 
771 -772 -777 0 
772 -773 -775 0 
773 774 0 
775 776 0 
777 778 0 
779 780 0 
781 782 0 
783 784 0 
785 786 0 
76 77 -86 0 
787 788 0 
789 -790 -810 0 
790 -791 -808 0 
791 -792 -806 0 
792 -793 -804 0 
793 -794 -802 0 
794 -795 -800 0 
795 -796 -798 0 
7 -8 -9 0 
7 8 9 0 
77 -78 0 
796 -20 -797 0 
796 20 797 0 
798 -22 -799 0 
798 22 799 0 
800 -24 -801 0 
800 24 801 0 
802 -26 -803 0 
802 26 803 0 
804 -28 -805 0 
804 28 805 0 
78 -79 0 
806 -30 -807 0 
806 30 807 0 
808 -32 -809 0 
808 32 809 0 
810 -34 -811 0 
810 34 811 0 
812 -12 -821 0 
812 -813 -12 0 
812 813 -821 0 
813 -814 -787 0 
814 -815 -785 0 
815 -816 -783 0 
79 -80 0 
816 -817 -781 0 
817 -818 -779 0 
818 -819 -777 0 
819 -820 -775 0 
820 -774 0 
821 -822 -830 0 
821 -830 -789 0 
821 822 -789 0 
822 -823 -787 0 
823 -824 -785 0 
824 -825 -783 0 
825 -826 -781 0 
80 -81 0 
826 -827 -779 0 
827 -828 -777 0 
828 -773 -829 0 
829 -776 0 
830 -831 -851 0 
831 -832 -849 0 
832 -833 -847 0 
833 -834 -845 0 
834 -835 -843 0 
835 -836 -841 0 
81 -82 0 
836 -837 -839 0 
837 -20 -838 0 
837 20 838 0 
839 -22 -840 0 
839 22 840 0 
841 -24 -842 0 
841 24 842 0 
843 -26 -844 0 
843 26 844 0 
845 -28 -846 0 
845 28 846 0 
82 -83 0 
847 -30 -848 0 
847 30 848 0 
849 -32 -850 0 
849 32 850 0 
851 -34 -852 0 
851 34 852 0 
853 -40 -854 0 
853 -854 -857 0 
853 40 -857 0 
854 -12 -855 0 
854 -48 -12 0 
854 48 -855 0 
855 -50 -856 0 
855 -856 -857 0 
855 50 -857 0 
83 -84 0 
856 -53 -857 0 
856 -857 -880 0 
856 53 -880 0 
857 -858 -878 0 
858 -859 -876 0 
859 -860 -874 0 
860 -861 -872 0 
861 -862 -870 0 
862 -863 -868 0 
863 -864 -866 0 
864 -20 -865 0 
864 20 865 0 
84 85 0 
866 -22 -867 0 
866 22 867 0 
868 -24 -869 0 
868 24 869 0 
870 -26 -871 0 
870 26 871 0 
872 -28 -873 0 
872 28 873 0 
874 -30 -875 0 
874 30 875 0 
876 -32 -877 0 
876 32 877 0 
878 -34 -879 0 
878 34 879 0 
880 -102 -12 0 
880 -12 -881 0 
880 102 -881 0 
881 -111 -882 0 
881 -882 -857 0 
881 111 -857 0 
882 -213 -883 0 
882 -883 -899 0 
882 213 -899 0 
883 -293 -884 0 
883 -884 -857 0 
883 293 -857 0 
884 -885 -898 0 
885 -886 -897 0 
886 -887 -896 0 
887 -888 -895 0 
888 -889 -894 0 
889 -890 -893 0 
890 -891 -892 0 
891 -20 -308 0 
891 20 308 0 
892 -22 -313 0 
892 22 313 0 
893 -24 -319 0 
893 24 319 0 
894 -26 -329 0 
894 26 329 0 
895 -28 -339 0 
895 28 339 0 
86 -87 -100 0 
896 -30 -349 0 
896 30 349 0 
897 -32 -359 0 
897 32 359 0 
898 -34 -369 0 
898 34 369 0 
899 -293 -883 0 
899 -883 -857 0 
899 293 -857 0 
87 -88 -99 0 
88 -89 -98 0 
89 -90 -97 0 
90 -91 -96 0 
91 -92 -95 0 
92 -93 -94 0 
93 61 0 
94 63 0 
95 65 0 
